cpu-bind=MASK - n2lcn0125, task  0  0 [3872873]: mask |--------|--------||--------|--------||--------|--------||--------|--------||||--------|--------||--------|----BBBB||--------|--------||--------|--------|  set
started at Fri Mar 17 08:50:08 CET 2023
Timecheck 10000965.919383038
Set parameter TokenServer to value "license3.uni-paderborn.de"
Warning: Gurobi version mismatch between Python 10.0.1 and C library 10.0.0
Timecheck 10000965.934891148
Timecheck 10000965.93512193
Timecheck 10000965.93515636
Timecheck 10000965.93517728


####################################################################################################
Solve scenario sce_4_26_1 with free vessel operation using the arc flow model
Vessels cannot omit ports, Demands cannot be rejected
####################################################################################################
Data preprocessing, load /upb/departments/pc2/groups/hpc-prf-winf4/dwetzel/SILSRP/inst_final/sce_4_26_1
and create additional sets and parameters
	|- Read vessel information, number of vessels:	9
	|- Read node information, number of nodes:		475
	|- Read arc information
		|- Number of sailing arcs:			1976
		|- Number of transshipment arcs:	700
	|- Read container information
		|- Number of demands:		1726
		|- Number of empties (+/-):	244/203
	|- Create additional sets and parameters

Data preprocessing took 	00:00:00.810
####################################################################################################
Create linear model
Set parameter Threads to value 4
	|- Create variables, took	00:00:01.209
	|- Create objective, took	00:00:01.020
	|- Create constraints, took	00:00:03.760
	|- Load heuristic start

Creating model took	00:00:06.172
####################################################################################################
Fix start solution

Set parameter TimeLimit to value 8.6251281602233648e+04
Gurobi Optimizer version 10.0.0 build v10.0.0rc2 (linux64)

CPU model: AMD EPYC 7763 64-Core Processor, instruction set [SSE2|AVX|AVX2]
Thread count: 128 physical cores, 128 logical processors, using up to 4 threads

Optimize a model with 75976 rows, 282978 columns and 927859 nonzeros
Model fingerprint: 0xffe6f827
Variable types: 263003 continuous, 19975 integer (19975 binary)
Coefficient statistics:
  Matrix range     [1e+00, 5e+06]
  Objective range  [1e+00, 1e+00]
  Bounds range     [1e+00, 3e+02]
  RHS range        [1e+00, 1e+09]
Warning: Model contains large rhs
         Consider reformulating model or setting NumericFocus parameter
         to avoid numerical issues.
Presolve removed 66593 rows and 258731 columns
Presolve time: 1.00s
Presolved: 9383 rows, 24247 columns, 72658 nonzeros
Variable types: 22724 continuous, 1523 integer (1519 binary)

Root relaxation: objective 4.276614e+07, 2909 iterations, 0.04 seconds (0.02 work units)

    Nodes    |    Current Node    |     Objective Bounds      |     Work
 Expl Unexpl |  Obj  Depth IntInf | Incumbent    BestBd   Gap | It/Node Time

     0     0 4.2766e+07    0    1          - 4.2766e+07      -     -    1s
H    0     0                    4.590594e+07 4.2766e+07  6.84%     -    1s
H    0     0                    4.297966e+07 4.2766e+07  0.50%     -    1s
H    0     0                    4.297950e+07 4.2766e+07  0.50%     -    1s
H    0     0                    4.277731e+07 4.2766e+07  0.03%     -    1s

Cutting planes:
  Gomory: 1
  MIR: 2
  Flow cover: 4

Explored 1 nodes (2909 simplex iterations) in 1.50 seconds (1.05 work units)
Thread count was 4 (of 128 available processors)

Solution count 4: 4.27773e+07 4.29795e+07 4.29797e+07 4.59059e+07 

Optimal solution found (tolerance 1.00e-04)
Best objective 4.277731200000e+07, best bound 4.277458600000e+07, gap 0.0064%

Fixing start solution took	00:00:07.793
####################################################################################################
####################################################################################################
Solve optimization model

Set parameter TimeLimit to value 8.6249755069540814e+04
Gurobi Optimizer version 10.0.0 build v10.0.0rc2 (linux64)

CPU model: AMD EPYC 7763 64-Core Processor, instruction set [SSE2|AVX|AVX2]
Thread count: 128 physical cores, 128 logical processors, using up to 4 threads

Optimize a model with 75502 rows, 282978 columns and 927385 nonzeros
Model fingerprint: 0x96856310
Variable types: 263003 continuous, 19975 integer (19975 binary)
Coefficient statistics:
  Matrix range     [1e+00, 5e+06]
  Objective range  [1e+00, 1e+00]
  Bounds range     [1e+00, 3e+02]
  RHS range        [1e+00, 1e+09]
Warning: Model contains large rhs
         Consider reformulating model or setting NumericFocus parameter
         to avoid numerical issues.

Loaded MIP start from previous solve with objective 4.27773e+07

Presolve removed 11734 rows and 21063 columns (presolve time = 5s) ...
Presolve removed 11822 rows and 21068 columns
Presolve time: 5.58s
Presolved: 63680 rows, 261910 columns, 754323 nonzeros
Variable types: 244388 continuous, 17522 integer (17522 binary)
Deterministic concurrent LP optimizer: primal simplex, dual simplex, and barrier
Showing barrier log only...

Root barrier log...

Ordering time: 1.36s

Barrier statistics:
 AA' NZ     : 6.941e+05
 Factor NZ  : 8.093e+06 (roughly 200 MB of memory)
 Factor Ops : 2.853e+09 (less than 1 second per iteration)
 Threads    : 2

                  Objective                Residual
Iter       Primal          Dual         Primal    Dual     Compl     Time
   0  -9.08374010e+14 -1.40342890e+15  1.72e+09 1.01e+05  1.25e+13     8s
   1  -1.07631782e+14 -4.08623056e+14  2.59e+08 8.87e+04  1.98e+12     8s
   2  -1.78264878e+13 -1.20732591e+14  4.31e+07 1.05e+04  3.35e+11     8s
   3  -2.16267237e+12 -3.11453357e+13  5.30e+06 1.00e-08  4.15e+10     9s
   4  -3.64075099e+11 -7.71877903e+12  9.01e+05 5.24e-09  7.13e+09     9s
   5  -6.56892835e+10 -3.82320303e+12  1.64e+05 4.89e-09  1.31e+09     9s
   6  -1.76534291e+10 -2.36099753e+12  4.41e+04 6.05e-09  3.57e+08    10s
   7  -4.13806806e+09 -1.75616278e+12  9.78e+03 1.49e-08  8.22e+07    10s
   8  -1.34406240e+09 -1.29837456e+12  2.75e+03 3.82e-08  2.43e+07    10s
   9  -4.20375410e+08 -8.93067989e+11  8.01e+02 2.24e-08  7.81e+06    10s
  10  -4.45197569e+07 -5.41293937e+11  1.83e+02 1.39e-07  2.53e+06    10s
  11   6.82027065e+07 -2.79561489e+11  5.23e+01 1.40e-08  9.43e+05    11s
  12   9.97346646e+07 -1.55971176e+11  2.40e+01 1.09e-08  4.64e+05    11s
  13   1.06247525e+08 -1.08048521e+11  1.39e+01 1.19e-06  2.97e+05    11s
  14   1.05502327e+08 -7.10633819e+10  7.45e+00 2.26e-07  1.81e+05    11s
  15   9.90075439e+07 -2.84296012e+10  3.48e+00 7.32e-07  7.41e+04    11s
  16   8.31118261e+07 -1.54334558e+10  1.43e+00 7.15e-08  3.71e+04    12s
  17   7.72943127e+07 -7.92566257e+09  9.44e-01 1.58e-06  2.00e+04    12s
  18   6.55109543e+07 -4.20285632e+09  2.63e-01 4.78e-07  9.46e+03    12s
  19   5.54027778e+07 -1.15192317e+09  3.75e-02 1.71e-06  2.52e+03    12s
  20   4.84347441e+07 -5.00658509e+08  5.79e-03 3.77e-06  1.08e+03    13s
  21   4.42654226e+07 -2.56313638e+08  2.47e-03 1.23e-06  5.91e+02    13s
  22   4.14162137e+07 -1.20037333e+08  1.36e-03 4.67e-06  3.21e+02    13s
  23   3.74443529e+07 -2.15506572e+07  4.44e-04 3.47e-06  1.18e+02    13s
  24   3.47526307e+07  6.50183793e+06  1.81e-04 2.66e-07  5.63e+01    14s
  25   3.26950963e+07  1.89914619e+07  9.10e-05 2.60e-06  2.77e+01    14s
  26   3.17036571e+07  2.34091136e+07  5.86e-05 4.32e-06  1.70e+01    14s
  27   3.13043930e+07  2.41610998e+07  4.50e-05 1.37e-05  1.45e+01    14s
  28   3.09969007e+07  2.46033259e+07  3.60e-05 1.92e-05  1.29e+01    15s
  29   3.07531614e+07  2.56988125e+07  2.92e-05 2.26e-05  1.02e+01    15s
  30   3.04016454e+07  2.69452590e+07  2.00e-05 1.19e-05  6.99e+00    15s
  31   3.00653219e+07  2.78827208e+07  2.33e-05 2.24e-05  4.43e+00    15s
  32   2.97936362e+07  2.84913304e+07  1.19e-05 2.20e-06  2.63e+00    16s
  33   2.96399508e+07  2.88635424e+07  7.11e-06 1.05e-05  1.56e+00    16s
  34   2.96001372e+07  2.91065791e+07  5.69e-06 1.90e-05  1.01e+00    16s
  35   2.95566243e+07  2.91887381e+07  3.80e-06 1.38e-05  7.50e-01    16s
  36   2.95398046e+07  2.92398030e+07  3.17e-06 8.10e-06  6.12e-01    17s
  37   2.95121309e+07  2.93135461e+07  2.92e-06 1.08e-05  4.07e-01    17s
  38   2.94923349e+07  2.93650798e+07  1.94e-06 1.38e-05  2.61e-01    17s
  39   2.94718808e+07  2.94083553e+07  9.74e-07 6.59e-06  1.30e-01    17s
  40   2.94643914e+07  2.94326180e+07  2.43e-06 1.15e-05  6.62e-02    18s
  41   2.94564240e+07  2.94501000e+07  5.91e-07 6.94e-06  1.38e-02    18s
  42   2.94543623e+07  2.94530041e+07  2.42e-07 1.23e-04  3.11e-03    18s
  43   2.94538750e+07  2.94533568e+07  7.92e-08 1.33e-04  1.16e-03    18s
  44   2.94536569e+07  2.94535759e+07  5.97e-09 5.09e-04  1.70e-04    18s
  45  -9.08374014e+14 -1.40429988e+16  1.72e+09 1.73e+03  1.25e+14    19s
  46  -3.95397129e+13 -1.54106110e+15  8.64e+07 3.10e-08  4.18e+12    19s
  47  -5.52507975e+12 -4.46136195e+14  1.19e+07 3.82e-08  5.32e+11    20s
  48  -1.22549180e+12 -1.45214561e+14  2.68e+06 2.42e-08  1.14e+11    20s
  49  -4.02428653e+11 -8.16836536e+13  8.91e+05 6.03e-08  3.70e+10    20s
  50  -1.62130901e+11 -5.29542425e+13  3.61e+05 3.74e-08  1.45e+10    20s
  51  -6.63879664e+10 -3.62301314e+13  1.48e+05 3.09e-08  5.58e+09    20s
  52  -2.19954190e+10 -1.92117313e+13  4.82e+04 2.44e-08  1.62e+09    21s
  53  -3.73788631e+09 -5.37196298e+12  6.77e+03 1.52e-08  1.42e+08    21s
  54  -1.14129250e+09 -1.67495966e+12  1.63e+03 2.27e-08  2.06e+07    21s
  55  -1.39048019e+08 -2.73595669e+11  2.14e+02 1.10e-07  1.35e+06    22s
  56   1.17573803e+07 -9.87152708e+10  5.97e+01 5.21e-08  3.46e+05    22s
  57   4.40182887e+07 -5.27993765e+10  3.16e+01 1.78e-07  1.67e+05    22s
  58   5.73109377e+07 -3.22010555e+10  1.75e+01 9.80e-08  9.38e+04    22s
  59   6.42295481e+07 -1.76620513e+10  1.01e+01 8.69e-09  5.02e+04    23s
  60   6.50412893e+07 -7.70463723e+09  5.04e+00 5.08e-08  2.16e+04    23s
  61   5.93000899e+07 -3.33629139e+09  1.69e+00 5.82e-07  8.38e+03    23s
  62   5.74926521e+07 -1.67737504e+09  1.34e+00 5.31e-07  4.71e+03    23s
  63   5.12635106e+07 -7.83937022e+08  3.36e-01 9.64e-08  1.93e+03    24s
  64   4.49525908e+07 -2.25138482e+08  9.20e-02 4.18e-07  6.10e+02    24s
  65   4.11474171e+07 -1.07907873e+08  3.38e-02 8.52e-08  3.19e+02    24s
  66   3.87615164e+07 -4.70402587e+07  2.03e-02 6.12e-07  1.85e+02    24s
  67   3.63800515e+07 -8.15758850e+06  1.18e-02 6.97e-07  9.79e+01    25s
  68   3.41472558e+07  1.05405858e+07  6.34e-03 1.24e-07  5.21e+01    25s
  69   3.24821193e+07  2.03552912e+07  3.42e-03 2.63e-07  2.70e+01    25s
  70   3.10911751e+07  2.47986200e+07  1.54e-03 9.63e-07  1.38e+01    25s
  71   3.04892412e+07  2.60940549e+07  9.07e-04 5.46e-07  9.43e+00    26s
  72   3.02729127e+07  2.71240849e+07  7.00e-04 3.65e-07  6.82e+00    26s
  73   3.01029425e+07  2.77300243e+07  5.48e-04 5.77e-07  5.17e+00    26s
  74   2.98776338e+07  2.83125955e+07  3.51e-04 1.24e-06  3.40e+00    26s
  75   2.97493386e+07  2.88917002e+07  2.45e-04 4.09e-06  1.93e+00    27s
  76   2.96165967e+07  2.92078301e+07  1.34e-04 8.50e-06  9.46e-01    27s
  77   2.95658428e+07  2.92964435e+07  9.22e-05 7.22e-06  6.30e-01    27s
  78   2.95131395e+07  2.93315875e+07  4.89e-05 8.84e-06  4.08e-01    28s
  79   2.94817827e+07  2.93762506e+07  2.31e-05 1.32e-05  2.31e-01    28s
  80   2.94708681e+07  2.94129168e+07  1.42e-05 6.00e-05  1.29e-01    28s
  81   2.94615482e+07  2.94372855e+07  6.44e-06 6.06e-05  5.47e-02    29s
  82   2.94587071e+07  2.94429901e+07  4.58e-06 1.01e-04  3.55e-02    29s
  83   2.94558216e+07  2.94496968e+07  1.97e-06 1.63e-04  1.41e-02    29s
  84   2.94550162e+07  2.94505000e+07  5.96e-06 1.29e-04  1.02e-02    30s
  85   2.94541371e+07  2.94524050e+07  1.34e-05 1.02e-03  3.89e-03    30s
  86   2.94537562e+07  2.94532939e+07  3.22e-06 3.92e-03  1.04e-03    30s
  87   2.94536559e+07  2.94536081e+07  5.12e-07 5.12e-03  1.17e-04    31s
  88   2.94536375e+07  2.94536359e+07  1.90e-07 1.08e-02  4.37e-06    31s
  89   2.94536371e+07  2.94536361e+07  4.36e-08 7.99e-02  2.07e-06    31s
  90   2.94536371e+07  2.94536361e+07  4.34e-08 8.13e-02  2.05e-06    32s
  91   2.94536369e+07  2.94536365e+07  1.76e-08 9.15e-01  7.40e-07    32s
  92   2.94536369e+07  2.94536363e+07  1.47e-08 1.32e+00  7.25e-07    32s
  93   2.94536369e+07  2.94536352e+07  6.54e-09 1.63e+00  7.20e-07    33s
  94   2.94536369e+07  2.94536340e+07  1.33e-08 2.45e+00  7.19e-07    33s
  95   2.94536369e+07  2.94535750e+07  7.01e-09 1.69e+00  7.16e-07    33s
  96   2.94536369e+07  2.94535499e+07  3.76e-09 2.22e+00  7.15e-07    34s
  97   2.94536369e+07  2.94573072e+07  9.40e-09 1.99e+03  1.66e-08    34s
  98   2.94536369e+07  2.94171333e+07  4.90e-09 3.72e+03  1.11e-08    34s
  99   2.94536369e+07  2.94235818e+07  8.18e-09 3.09e+03  9.16e-09    35s
 100   2.94536369e+07  2.94378228e+07  6.66e-09 3.38e+03  4.78e-09    35s
 101   2.94536369e+07  2.94456610e+07  5.09e-09 3.73e+03  2.52e-09    35s
 102   2.94536369e+07  2.94543324e+07  8.82e-09 1.99e+04  1.02e-09    35s
 103   2.94536369e+07  2.94549922e+07  6.53e-09 3.55e+04  9.35e-10    36s
 104   2.94536369e+07  2.94531592e+07  4.19e-09 2.62e+04  6.19e-10    36s
 105   2.94536369e+07  2.94473037e+07  3.21e-09 2.29e+04  4.87e-10    36s
 106   2.94536369e+07  2.94391997e+07  2.41e-09 2.07e+04  4.06e-10    37s
 107   2.94536369e+07  2.94297033e+07  2.29e-09 2.56e+04  3.71e-10    37s
 108   2.94536369e+07  2.94171842e+07  2.04e-09 1.79e+04  2.91e-10    37s
 109   2.94536369e+07  2.94130995e+07  1.75e-09 1.77e+04  2.46e-10    38s
 110   2.94536369e+07  2.94240178e+07  1.58e-09 2.74e+04  1.80e-10    38s
 111   2.94536369e+07  2.94301516e+07  1.81e-09 1.83e+04  1.55e-10    38s
 112   2.94536369e+07  2.94141498e+07  1.20e-09 2.30e+04  1.38e-10    39s
 113   2.94536369e+07  2.94384900e+07  3.07e-09 1.84e+04  1.18e-10    39s
 114   2.94536369e+07  2.94408573e+07  2.58e-09 1.77e+04  1.14e-10    39s
 115   2.94536369e+07  2.94250316e+07  2.16e-09 1.80e+04  1.00e-10    40s
 116   2.94536369e+07  2.93982645e+07  3.29e-09 1.81e+04  8.05e-11    40s
 117   2.94536369e+07  2.94339326e+07  3.18e-09 2.82e+04  6.96e-11    40s
 118   2.94536369e+07  2.94163918e+07  3.03e-09 2.91e+04  6.02e-11    41s
 119   2.94536369e+07  2.93897008e+07  2.83e-09 1.83e+04  5.61e-11    41s
 120   2.94536369e+07  2.93680832e+07  2.30e-09 2.38e+04  4.88e-11    41s
 121   2.94536369e+07  2.93543477e+07  2.25e-09 2.22e+04  4.09e-11    42s
 122   2.94536369e+07  2.93414116e+07  2.07e-09 2.13e+04  3.66e-11    42s
 123   2.94536369e+07  2.93479682e+07  4.62e-09 2.12e+04  3.24e-11    43s
 124   2.94536369e+07  2.93528975e+07  4.30e-09 2.18e+04  3.07e-11    43s
 125   2.94536369e+07  2.93646930e+07  4.14e-09 2.20e+04  2.99e-11    43s
 126   2.94536369e+07  2.93663467e+07  3.82e-09 2.22e+04  2.74e-11    44s
 127   2.94536369e+07  2.93798020e+07  3.73e-09 2.10e+04  2.52e-11    44s
 128   2.94536369e+07  2.93839649e+07  3.68e-09 2.11e+04  2.48e-11    44s
 129   2.94536369e+07  2.93769543e+07  3.38e-09 2.12e+04  2.27e-11    45s
 130   2.94536369e+07  2.97283520e+07  3.08e-09 2.12e+04  2.12e-11    45s
 131   2.94536369e+07  2.97104892e+07  2.99e-09 2.08e+04  1.98e-11    45s
 132   2.94536369e+07  2.97001951e+07  2.83e-09 2.11e+04  1.87e-11    46s
 133   2.94536369e+07  2.97306739e+07  2.67e-09 2.09e+04  1.70e-11    46s
 134   2.94536369e+07  2.98161356e+07  2.51e-09 2.10e+04  1.58e-11    46s
 135   2.94536369e+07  2.86804828e+07  2.39e-09 1.82e+04  1.40e-11    47s
 136   2.94536369e+07  2.86621733e+07  2.30e-09 1.76e+04  1.36e-11    47s
 137   2.94536369e+07  2.83338390e+07  2.22e-09 1.81e+04  1.25e-11    47s
 138   2.94536369e+07  2.83708878e+07  2.19e-09 1.75e+04  1.21e-11    48s
 139   2.94536369e+07  2.83226992e+07  2.12e-09 1.80e+04  1.17e-11    48s
 140   2.94536369e+07  2.81992806e+07  1.88e-09 1.88e+04  1.05e-11    48s
 141   2.94536369e+07  2.82449963e+07  1.65e-09 1.99e+04  9.92e-12    49s
 142   2.94536369e+07  2.83233917e+07  1.54e-09 2.67e+04  9.27e-12    49s
 143   2.94536369e+07  2.83672360e+07  1.45e-09 2.48e+04  8.61e-12    49s
 144   2.94536369e+07  2.83350165e+07  1.40e-09 2.49e+04  8.29e-12    50s
 145   2.94536369e+07  2.83488449e+07  1.36e-09 2.50e+04  8.10e-12    50s
 146   2.94536369e+07  2.83433904e+07  1.34e-09 2.53e+04  8.10e-12    50s
 147   2.94536369e+07  2.84399988e+07  1.26e-09 2.60e+04  7.50e-12    51s
 148   2.94536369e+07  2.60833639e+07  1.25e-09 2.62e+04  6.85e-12    51s
 149   2.94536369e+07  2.60731863e+07  1.24e-09 2.62e+04  6.78e-12    51s
 150   2.94536369e+07  2.60704281e+07  1.24e-09 2.62e+04  6.76e-12    52s
 151   2.94536369e+07  2.60707897e+07  1.23e-09 2.62e+04  6.69e-12    52s
 152   2.94536369e+07  2.54910965e+07  1.23e-09 2.64e+04  6.54e-12    52s
 153   2.94536369e+07  2.54951783e+07  1.22e-09 2.65e+04  6.51e-12    53s
 154   2.94536369e+07  2.55368811e+07  1.21e-09 2.63e+04  6.43e-12    53s
 155   2.94536369e+07  2.50657979e+07  1.20e-09 2.62e+04  6.32e-12    54s
 156   2.94536369e+07  2.49651531e+07  1.20e-09 2.62e+04  6.28e-12    54s
 157   2.94536369e+07  2.49893232e+07  1.19e-09 2.61e+04  6.22e-12    54s
 158   2.94536369e+07  2.48081275e+07  1.19e-09 2.62e+04  6.14e-12    55s
 159   2.94536369e+07  2.48207351e+07  1.18e-09 2.63e+04  6.09e-12    55s
 160   2.94536369e+07  2.48436875e+07  1.17e-09 2.62e+04  6.04e-12    55s
 161   2.94536369e+07  2.47453834e+07  1.17e-09 2.61e+04  5.97e-12    56s
 162   2.94536369e+07  2.46869926e+07  1.17e-09 2.61e+04  5.94e-12    56s
 163   2.94536369e+07  2.46905543e+07  1.16e-09 2.60e+04  5.89e-12    57s
 164   2.94536369e+07  2.46806942e+07  1.16e-09 2.61e+04  5.86e-12    57s
 165   2.94536369e+07  2.47063431e+07  1.16e-09 2.62e+04  5.83e-12    57s

Barrier performed 165 iterations in 57.37 seconds (48.41 work units)
Sub-optimal termination - objective 2.94538750e+07


Root crossover log...

   59196 DPushes remaining with DInf 1.8676182e-03                57s
       0 DPushes remaining with DInf 0.0000000e+00                60s

   75943 PPushes remaining with PInf 1.9408658e-01                60s
   64964 PPushes remaining with PInf 2.9265467e-01                60s
       0 PPushes remaining with PInf 0.0000000e+00                64s

  Push phase complete: Pinf 0.0000000e+00, Dinf 1.2379680e+06     64s


Root simplex log...

Iteration    Objective       Primal Inf.    Dual Inf.      Time
  133460    2.9453637e+07   0.000000e+00   1.237968e+06     64s
  135200    2.9453637e+07   0.000000e+00   1.981891e+05     65s
  137660    2.9453637e+07   0.000000e+00   0.000000e+00     67s
Concurrent spin time: 15.56s (can be avoided by choosing Method=3)

Solved with barrier
  138202    2.9453637e+07   0.000000e+00   0.000000e+00     84s
Extra simplex iterations after uncrush: 542

Root relaxation: objective 2.945364e+07, 138202 iterations, 77.83 seconds (54.70 work units)
Total elapsed time = 95.66s

    Nodes    |    Current Node    |     Objective Bounds      |     Work
 Expl Unexpl |  Obj  Depth IntInf | Incumbent    BestBd   Gap | It/Node Time

     0     0 2.9454e+07    0 2672 4.2777e+07 2.9454e+07  31.1%     -  103s
     0     0 2.9455e+07    0 2555 4.2777e+07 2.9455e+07  31.1%     -  116s
     0     0 2.9458e+07    0 2570 4.2777e+07 2.9458e+07  31.1%     -  128s
     0     0 2.9458e+07    0 2528 4.2777e+07 2.9458e+07  31.1%     -  134s
     0     0 2.9863e+07    0 2536 4.2777e+07 2.9863e+07  30.2%     -  534s
     0     0 2.9863e+07    0 2521 4.2777e+07 2.9863e+07  30.2%     -  598s
     0     0 2.9922e+07    0 2527 4.2777e+07 2.9922e+07  30.1%     - 2606s
     0     0 2.9929e+07    0 2466 4.2777e+07 2.9929e+07  30.0%     - 2675s
     0     0 2.9931e+07    0 2483 4.2777e+07 2.9931e+07  30.0%     - 2702s
     0     0 2.9932e+07    0 2494 4.2777e+07 2.9932e+07  30.0%     - 2714s
     0     0 2.9932e+07    0 2536 4.2777e+07 2.9932e+07  30.0%     - 2720s
     0     0 2.9932e+07    0 2515 4.2777e+07 2.9932e+07  30.0%     - 2727s
     0     0 2.9932e+07    0 2515 4.2777e+07 2.9932e+07  30.0%     - 2727s
     0     0 2.9932e+07    0 2509 4.2777e+07 2.9932e+07  30.0%     - 2731s
     0     0 2.9932e+07    0 2521 4.2777e+07 2.9932e+07  30.0%     - 2734s
     0     0 2.9932e+07    0 2519 4.2777e+07 2.9932e+07  30.0%     - 2737s
     0     0 3.0108e+07    0 2670 4.2777e+07 3.0108e+07  29.6%     - 4104s
     0     0 3.0108e+07    0 1854 4.2777e+07 3.0108e+07  29.6%     - 4278s
     0     0 3.0108e+07    0 2170 4.2777e+07 3.0108e+07  29.6%     - 4662s
     0     0 3.0108e+07    0 2156 4.2777e+07 3.0108e+07  29.6%     - 5016s
     0     0 3.0118e+07    0 2171 4.2777e+07 3.0118e+07  29.6%     - 5193s
     0     0 3.0129e+07    0 2191 4.2777e+07 3.0129e+07  29.6%     - 5309s
     0     0 3.0132e+07    0 2216 4.2777e+07 3.0132e+07  29.6%     - 5350s
     0     0 3.0133e+07    0 2214 4.2777e+07 3.0133e+07  29.6%     - 5375s
     0     0 3.0133e+07    0 2173 4.2777e+07 3.0133e+07  29.6%     - 5376s
     0     0 3.0133e+07    0 2181 4.2777e+07 3.0133e+07  29.6%     - 5381s
     0     0 3.0213e+07    0 2219 4.2777e+07 3.0213e+07  29.4%     - 5821s
     0     0 3.0213e+07    0 2201 4.2777e+07 3.0213e+07  29.4%     - 5823s
     0     0 3.0282e+07    0 2238 4.2777e+07 3.0282e+07  29.2%     - 6296s
     0     0 3.0282e+07    0 2236 4.2777e+07 3.0282e+07  29.2%     - 6304s
     0     0 3.0311e+07    0 2219 4.2777e+07 3.0311e+07  29.1%     - 6696s
     0     0 3.0311e+07    0 2228 4.2777e+07 3.0311e+07  29.1%     - 6747s
     0     0 3.0324e+07    0 2297 4.2777e+07 3.0324e+07  29.1%     - 7040s
     0     0 3.0328e+07    0 2227 4.2777e+07 3.0328e+07  29.1%     - 7229s
     0     0 3.0328e+07    0 2257 4.2777e+07 3.0328e+07  29.1%     - 7306s
     0     0 3.0330e+07    0 2247 4.2777e+07 3.0330e+07  29.1%     - 7720s
     0     0 3.0330e+07    0 2238 4.2777e+07 3.0330e+07  29.1%     - 7737s
     0     0 3.0331e+07    0 2211 4.2777e+07 3.0331e+07  29.1%     - 8081s
     0     0 3.0331e+07    0 2253 4.2777e+07 3.0331e+07  29.1%     - 8206s
     0     0 3.0331e+07    0 2236 4.2777e+07 3.0331e+07  29.1%     - 8379s
     0     0 3.0332e+07    0 2261 4.2777e+07 3.0332e+07  29.1%     - 8694s
     0     0 3.0332e+07    0 2245 4.2777e+07 3.0332e+07  29.1%     - 8732s
     0     0 3.0332e+07    0 2215 4.2777e+07 3.0332e+07  29.1%     - 9031s
     0     0 3.0332e+07    0 2240 4.2777e+07 3.0332e+07  29.1%     - 9064s
     0     0 3.0332e+07    0 2256 4.2777e+07 3.0332e+07  29.1%     - 9143s
     0     0 3.0378e+07    0 2162 4.2777e+07 3.0378e+07  29.0%     - 10032s
     0     0 3.0419e+07    0 2181 4.2777e+07 3.0419e+07  28.9%     - 10686s
     0     0 3.0436e+07    0 2203 4.2777e+07 3.0436e+07  28.8%     - 11021s
     0     0 3.0442e+07    0 2206 4.2777e+07 3.0442e+07  28.8%     - 11282s
     0     0 3.0442e+07    0 2164 4.2777e+07 3.0442e+07  28.8%     - 11457s
     0     0 3.0445e+07    0 2164 4.2777e+07 3.0445e+07  28.8%     - 12140s
     0     0 3.0445e+07    0 2214 4.2777e+07 3.0445e+07  28.8%     - 13997s
H    0     0                    4.276359e+07 3.0445e+07  28.8%     - 14066s
H    0     0                    4.275829e+07 3.0445e+07  28.8%     - 14066s
H    0     0                    4.275457e+07 3.0445e+07  28.8%     - 14066s
H    0     0                    4.275430e+07 3.0445e+07  28.8%     - 14066s
     0     0 3.0447e+07    0 2200 4.2754e+07 3.0447e+07  28.8%     - 15824s
     0     0 3.0448e+07    0 2184 4.2754e+07 3.0448e+07  28.8%     - 15944s
     0     0 3.0448e+07    0 2208 4.2754e+07 3.0448e+07  28.8%     - 15973s
     0     0 3.0448e+07    0 2217 4.2754e+07 3.0448e+07  28.8%     - 16484s
     0     0 3.0448e+07    0 2214 4.2754e+07 3.0448e+07  28.8%     - 16538s
     0     0 3.0449e+07    0 2220 4.2754e+07 3.0449e+07  28.8%     - 16792s
     0     0 3.0449e+07    0 2235 4.2754e+07 3.0449e+07  28.8%     - 16827s
H    0     0                    4.273771e+07 3.0449e+07  28.8%     - 17212s
     0     0 3.0489e+07    0 2148 4.2738e+07 3.0489e+07  28.7%     - 17223s
H    0     0                    4.249104e+07 3.0489e+07  28.2%     - 17470s
     0     0 3.0505e+07    0 2106 4.2491e+07 3.0505e+07  28.2%     - 17494s
H    0     0                    4.247006e+07 3.0505e+07  28.2%     - 17655s
     0     0 3.0511e+07    0 2170 4.2470e+07 3.0511e+07  28.2%     - 17742s
     0     0 3.0511e+07    0 2167 4.2470e+07 3.0511e+07  28.2%     - 17853s
     0     0 3.0519e+07    0 2231 4.2470e+07 3.0519e+07  28.1%     - 18092s
     0     0 3.0519e+07    0 2212 4.2470e+07 3.0519e+07  28.1%     - 18104s
     0     0 3.0526e+07    0 2152 4.2470e+07 3.0526e+07  28.1%     - 18337s
     0     0 3.0526e+07    0 2169 4.2470e+07 3.0526e+07  28.1%     - 18391s
H    0     0                    4.245936e+07 3.0526e+07  28.1%     - 18733s
     0     0 3.0528e+07    0 2143 4.2459e+07 3.0528e+07  28.1%     - 18754s
     0     0 3.0528e+07    0 2189 4.2459e+07 3.0528e+07  28.1%     - 18849s
     0     0 3.0529e+07    0 2210 4.2459e+07 3.0529e+07  28.1%     - 18911s
     0     0 3.0529e+07    0 2189 4.2459e+07 3.0529e+07  28.1%     - 19044s
     0     0 3.0529e+07    0 2241 4.2459e+07 3.0529e+07  28.1%     - 19176s
     0     0 3.0529e+07    0 2215 4.2459e+07 3.0529e+07  28.1%     - 19189s
     0     0 3.0552e+07    0 2148 4.2459e+07 3.0552e+07  28.0%     - 19629s
     0     0 3.0562e+07    0 2154 4.2459e+07 3.0562e+07  28.0%     - 19793s
     0     0 3.0562e+07    0 2180 4.2459e+07 3.0562e+07  28.0%     - 19799s
     0     0 3.0567e+07    0 2163 4.2459e+07 3.0567e+07  28.0%     - 21638s
     0     0 3.0569e+07    0 2147 4.2459e+07 3.0569e+07  28.0%     - 21763s
     0     0 3.0569e+07    0 2129 4.2459e+07 3.0569e+07  28.0%     - 21879s
     0     0 3.0570e+07    0 2163 4.2459e+07 3.0570e+07  28.0%     - 21966s
     0     0 3.0570e+07    0 2168 4.2459e+07 3.0570e+07  28.0%     - 21977s
     0     0 3.0571e+07    0 2202 4.2459e+07 3.0571e+07  28.0%     - 22119s
     0     0 3.0571e+07    0 2215 4.2459e+07 3.0571e+07  28.0%     - 22150s
     0     0 3.0571e+07    0 2168 4.2459e+07 3.0571e+07  28.0%     - 22189s
     0     0 3.0571e+07    0 2150 4.2459e+07 3.0571e+07  28.0%     - 22279s
     0     0 3.0572e+07    0 2165 4.2459e+07 3.0572e+07  28.0%     - 22299s
     0     0 3.0578e+07    0 2169 4.2459e+07 3.0578e+07  28.0%     - 22512s
     0     0 3.0578e+07    0 2158 4.2459e+07 3.0578e+07  28.0%     - 22598s
     0     0 3.0580e+07    0 2177 4.2459e+07 3.0580e+07  28.0%     - 22730s
     0     0 3.0581e+07    0 2163 4.2459e+07 3.0581e+07  28.0%     - 22801s
     0     0 3.0581e+07    0 2151 4.2459e+07 3.0581e+07  28.0%     - 22842s
     0     0 3.0583e+07    0 2167 4.2459e+07 3.0583e+07  28.0%     - 22915s
     0     0 3.0583e+07    0 2127 4.2459e+07 3.0583e+07  28.0%     - 22982s
     0     0 3.0584e+07    0 2128 4.2459e+07 3.0584e+07  28.0%     - 23038s
     0     0 3.0584e+07    0 2091 4.2459e+07 3.0584e+07  28.0%     - 23156s
     0     0 3.0585e+07    0 2135 4.2459e+07 3.0585e+07  28.0%     - 23197s
     0     0 3.0585e+07    0 2179 4.2459e+07 3.0585e+07  28.0%     - 23227s
H    0     0                    3.897370e+07 3.0585e+07  21.5%     - 23448s
     0     0 3.0589e+07    0 2144 3.8974e+07 3.0589e+07  21.5%     - 23542s
     0     0 3.0589e+07    0 2150 3.8974e+07 3.0589e+07  21.5%     - 23559s
     0     0 3.0590e+07    0 2138 3.8974e+07 3.0590e+07  21.5%     - 23667s
     0     0 3.0590e+07    0 2102 3.8974e+07 3.0590e+07  21.5%     - 23736s
     0     0 3.0591e+07    0 2173 3.8974e+07 3.0591e+07  21.5%     - 23983s
     0     0 3.0591e+07    0 2137 3.8974e+07 3.0591e+07  21.5%     - 24008s
     0     0 3.0591e+07    0 2179 3.8974e+07 3.0591e+07  21.5%     - 24162s
     0     0 3.0591e+07    0 2190 3.8974e+07 3.0591e+07  21.5%     - 24163s
     0     0 3.0591e+07    0 2213 3.8974e+07 3.0591e+07  21.5%     - 24234s
     0     0 3.0594e+07    0 2198 3.8974e+07 3.0594e+07  21.5%     - 24393s
     0     0 3.0594e+07    0 2119 3.8974e+07 3.0594e+07  21.5%     - 24496s
     0     0 3.0594e+07    0 2152 3.8974e+07 3.0594e+07  21.5%     - 24718s
     0     0 3.0595e+07    0 2130 3.8974e+07 3.0595e+07  21.5%     - 24801s
     0     0 3.0595e+07    0 2088 3.8974e+07 3.0595e+07  21.5%     - 24805s
     0     0 3.0596e+07    0 2200 3.8974e+07 3.0596e+07  21.5%     - 24861s
     0     0 3.0596e+07    0 2156 3.8974e+07 3.0596e+07  21.5%     - 24867s
     0     0 3.0596e+07    0 2173 3.8974e+07 3.0596e+07  21.5%     - 24900s
     0     0 3.0596e+07    0 2130 3.8974e+07 3.0596e+07  21.5%     - 24962s
     0     0 3.0598e+07    0 2162 3.8974e+07 3.0598e+07  21.5%     - 25192s
     0     0 3.0599e+07    0 2203 3.8974e+07 3.0599e+07  21.5%     - 25314s
     0     0 3.0599e+07    0 2167 3.8974e+07 3.0599e+07  21.5%     - 25425s
     0     0 3.0600e+07    0 2165 3.8974e+07 3.0600e+07  21.5%     - 25488s
     0     0 3.0601e+07    0 2151 3.8974e+07 3.0601e+07  21.5%     - 25547s
     0     0 3.0601e+07    0 2230 3.8974e+07 3.0601e+07  21.5%     - 25589s
     0     0 3.0602e+07    0 2243 3.8974e+07 3.0602e+07  21.5%     - 25735s
     0     0 3.0602e+07    0 2207 3.8974e+07 3.0602e+07  21.5%     - 25881s
     0     0 3.0603e+07    0 2217 3.8974e+07 3.0603e+07  21.5%     - 26011s
     0     0 3.0603e+07    0 2125 3.8974e+07 3.0603e+07  21.5%     - 26104s
     0     0 3.0604e+07    0 2197 3.8974e+07 3.0604e+07  21.5%     - 26197s
     0     0 3.0604e+07    0 2209 3.8974e+07 3.0604e+07  21.5%     - 26263s
     0     0 3.0604e+07    0 2118 3.8974e+07 3.0604e+07  21.5%     - 26305s
     0     0 3.0605e+07    0 2276 3.8974e+07 3.0605e+07  21.5%     - 26537s
     0     0 3.0605e+07    0 2168 3.8974e+07 3.0605e+07  21.5%     - 26575s
     0     0 3.0605e+07    0 2204 3.8974e+07 3.0605e+07  21.5%     - 26641s
     0     0 3.0605e+07    0 2213 3.8974e+07 3.0605e+07  21.5%     - 26645s
     0     0 3.0606e+07    0 2242 3.8974e+07 3.0606e+07  21.5%     - 26727s
     0     0 3.0606e+07    0 2242 3.8974e+07 3.0606e+07  21.5%     - 26729s
     0     2 3.0606e+07    0 2242 3.8974e+07 3.0606e+07  21.5%     - 27080s
     1     4 3.0606e+07    1 2156 3.8974e+07 3.0606e+07  21.5%  3915 27149s
     2     4 3.0607e+07    1 2111 3.8974e+07 3.0606e+07  21.5%  9467 27150s
     3     8 3.0607e+07    2 2090 3.8974e+07 3.0606e+07  21.5% 11886 28219s
     7    12 3.0607e+07    3 2185 3.8974e+07 3.0607e+07  21.5% 21894 28833s
    11    16 3.0633e+07    3 2109 3.8974e+07 3.0607e+07  21.5% 29163 29779s
    15    20 3.0608e+07    4 2172 3.8974e+07 3.0607e+07  21.5% 31368 29846s
    19    24 3.0607e+07    4 2147 3.8974e+07 3.0607e+07  21.5% 28263 29975s
    23    30 3.0607e+07    5 2176 3.8974e+07 3.0607e+07  21.5% 29478 30132s
    29    36 3.0607e+07    7 2178 3.8974e+07 3.0607e+07  21.5% 28857 31117s
    35    40 3.0607e+07    9 2196 3.8974e+07 3.0607e+07  21.5% 28735 31297s
    39    48 3.0607e+07   10 2205 3.8974e+07 3.0607e+07  21.5% 29054 32725s
    47    65 3.0617e+07   12 2173 3.8974e+07 3.0607e+07  21.5% 31698 34225s
    64    81 3.0735e+07   14 2121 3.8974e+07 3.0607e+07  21.5% 30542 35532s
H   74    81                    3.729839e+07 3.0607e+07  17.9% 27641 35533s
    80    90 3.0637e+07   18 2094 3.7298e+07 3.0607e+07  17.9% 28219 37109s
    89   107 3.0654e+07   20 2102 3.7298e+07 3.0607e+07  17.9% 32470 40203s
H  106   122                    3.710935e+07 3.0607e+07  17.5% 34732 42183s
H  106   122                    3.616890e+07 3.0607e+07  15.4% 34732 42183s
   121   135 3.0669e+07   24 2040 3.6169e+07 3.0607e+07  15.4% 35208 44277s
   134   156 3.0708e+07   26 1985 3.6169e+07 3.0607e+07  15.4% 35889 46548s
H  155   175                    3.616062e+07 3.0607e+07  15.4% 34361 49239s
H  168   175                    3.614770e+07 3.0607e+07  15.3% 35290 49239s
   174   194 3.0700e+07   32 1902 3.6148e+07 3.0607e+07  15.3% 35289 53193s
   193   210 3.0776e+07   33 1859 3.6148e+07 3.0607e+07  15.3% 36214 56286s
   209   242 3.0879e+07   36 1820 3.6148e+07 3.0607e+07  15.3% 36882 58503s
H  243   253                    3.534232e+07 3.0607e+07  13.4% 35202 62795s
   258   289 3.0994e+07   43 1804 3.5342e+07 3.0607e+07  13.4% 36970 65362s
   298   326     cutoff   52      3.5342e+07 3.0607e+07  13.4% 35277 68407s
H  304   326                    3.533320e+07 3.0607e+07  13.4% 34849 68407s
   337   358 3.1244e+07   58 1637 3.5333e+07 3.0607e+07  13.4% 33166 70906s
H  374   383                    3.505427e+07 3.0607e+07  12.7% 32421 75605s
   399   429 3.1622e+07   69 1301 3.5054e+07 3.0607e+07  12.7% 33092 80158s
   449   470 3.1664e+07   72 1267 3.5054e+07 3.0607e+07  12.7% 32090 84083s
   498   487 3.1687e+07   79 1269 3.5054e+07 3.0607e+07  12.7% 31181 86249s

Cutting planes:
  Cover: 3
  Implied bound: 1637
  Clique: 22
  MIR: 641
  Flow cover: 2133
  Zero half: 64
  RLT: 441
  Relax-and-lift: 2625

Explored 517 nodes (19014931 simplex iterations) in 86249.85 seconds (72029.96 work units)
Thread count was 4 (of 128 available processors)

Solution count 10: 3.50543e+07 3.50543e+07 3.53332e+07 ... 3.89737e+07

Time limit reached
Best objective 3.505427299999e+07, best bound 3.060725099307e+07, gap 12.6861%

Solving took 	23:57:29.865
####################################################################################################
####################################################################################################
####################################################################################################
Reached timelimit, but could find a feasible solution
####################################################################################################
Description                          Value
----------------------------  ------------
Objective (min)               35,054,273.0
Cost sailing                  12,474,193.0
Cost port visits              20,939,543.0
Cost transshipment (demands)   2,093,589.0
Cost transshipment (empties)     559,848.0
Penalty delayed demands        1,888,578.0
Revenue Empties                3,461,978.0
Penalty rejected demands         560,500.0
Rejected demands (%)                  0.06
Omitted ports (%)                      0.0
Gap (%)                              12.69
####################################################################################################
Export solution
####################################################################################################
Overall time 	23:57:39.010

real	1437m40.450s
user	4105m2.462s
sys	0m19.844s
finished at Sat Mar 18 08:47:49 CET 2023
